tsp_instances/TSP20/instance20.tsp
NODE_COORD_SECTION
0 44 144
1 184 3
2 119 171
3 20 30
4 30 185
5 196 109
6 26 154
7 89 169
8 64 151
9 13 178
10 83 169
11 196 77
12 69 59
13 190 155
14 171 179
15 4 200
16 61 57
17 145 23
18 177 49
19 79 107
