tsp_instances/TSP20/instance20.opt.tour
TOUR_SECTION
1
7
10
16
5
11
8
3
15
14
6
12
19
2
18
4
17
13
20
9
-1